9.0 35.0 0
43.0 19.0 5
79.0 35.0 24
93.0 7.0 3
13.0 35.0 20
67.0 13.0 26
31.0 77.0 23
81.0 7.0 15
27.0 49.0 3
27.0 35.0 20
69.0 23.0 16
31.0 51.0 9
27.0 27.0 21
15.0 83.0 3
7.0 35.0 24
53.0 25.0 14
75.0 13.0 6
47.0 49.0 6
25.0 33.0 13
1.0 23.0 5
45.0 11.0 3
1.0 47.0 3
93.0 15.0 20
41.0 9.0 16
75.0 55.0 22
3.0 1.0 10
51.0 67.0 12
57.0 91.0 20
21.0 97.0 24
55.0 13.0 6
3.0 71.0 1
37.0 19.0 2
73.0 21.0 13
19.0 19.0 7
75.0 73.0 6
93.0 49.0 24
41.0 87.0 19
97.0 73.0 4
45.0 29.0 7
